<number of tasks>
50

<cycle time>
1000

<order strength>
0.595


<task times>
1 455
2 624
3 529
4 540
5 457
6 591
7 630
8 634
9 705
10 471
11 363
12 239
13 355
14 424
15 515
16 544
17 582
18 347
19 417
20 368
21 385
22 567
23 481
24 662
25 474
26 661
27 669
28 383
29 327
30 464
31 397
32 619
33 558
34 492
35 366
36 375
37 372
38 642
39 492
40 446
41 528
42 638
43 587
44 516
45 264
46 575
47 644
48 584
49 471
50 734

<precedence relations>
1,30
2,30
3,30
4,18
5,12
6,9
6,10
6,12
7,8
7,10
7,11
8,30
9,18
10,18
11,13
11,14
11,17
12,14
12,15
12,16
12,17
13,18
14,18
15,41
16,38
16,42
17,19
17,20
17,26
18,21
18,22
18,23
18,24
18,25
19,41
20,27
20,28
20,29
21,28
21,30
21,31
22,26
22,27
22,28
22,29
23,29
23,30
25,26
25,29
26,30
27,31
27,38
28,37
29,31
29,40
30,32
30,33
30,34
30,35
30,36
30,37
30,38
30,39
30,40
31,37
31,43
32,50
33,42
34,43
35,43
36,42
37,41
38,41
41,44
41,45
41,46
41,47
41,48
41,49
45,50
46,50
48,50

<end>
